c Standarized MaxSat Instance
c{
c "sha1sum": "962ccb0b9636279ef3dac83d2fbb923fac19a32b",
c "nvars": 60,
c "ncls": 1120,
c "nhards": 0,
c "nhard_len_stats":
c    { "min": 0, "max": 0, "ave": 0.00,
c      "stddev": 0.00 },
c "nsofts": 1120,
c "nsoft_len_stats":
c    { "min": 2, "max": 2, "ave": 2.00,
c      "stddev": 0.00 },
c "nsoft_wts": 10,
c "soft_wt_stats":
c    { "min": 1, "max": 10, "ave": 5.65,
c      "stddev": 2.81 }
c}
c------------------------------------------------------------
c Generated after 1 tries
c Graph with 60 nodes and 560 edges, Max edges:1770
p wcnf 60 1120 6331
9 1 17 0
9 -1 -17 0
4 1 19 0
4 -1 -19 0
8 1 20 0
8 -1 -20 0
8 1 24 0
8 -1 -24 0
10 1 30 0
10 -1 -30 0
2 1 34 0
2 -1 -34 0
4 1 35 0
4 -1 -35 0
8 1 36 0
8 -1 -36 0
3 1 38 0
3 -1 -38 0
6 1 41 0
6 -1 -41 0
5 1 42 0
5 -1 -42 0
7 1 43 0
7 -1 -43 0
4 1 45 0
4 -1 -45 0
6 1 49 0
6 -1 -49 0
10 1 51 0
10 -1 -51 0
10 1 55 0
10 -1 -55 0
7 1 59 0
7 -1 -59 0
8 2 3 0
8 -2 -3 0
2 2 5 0
2 -2 -5 0
7 2 8 0
7 -2 -8 0
1 2 9 0
1 -2 -9 0
3 2 10 0
3 -2 -10 0
2 2 11 0
2 -2 -11 0
9 2 19 0
9 -2 -19 0
2 2 21 0
2 -2 -21 0
5 2 22 0
5 -2 -22 0
2 2 29 0
2 -2 -29 0
2 2 32 0
2 -2 -32 0
10 2 35 0
10 -2 -35 0
3 2 40 0
3 -2 -40 0
6 2 41 0
6 -2 -41 0
9 2 42 0
9 -2 -42 0
7 2 49 0
7 -2 -49 0
3 2 50 0
3 -2 -50 0
7 2 55 0
7 -2 -55 0
6 2 60 0
6 -2 -60 0
5 3 6 0
5 -3 -6 0
10 3 7 0
10 -3 -7 0
3 3 13 0
3 -3 -13 0
8 3 22 0
8 -3 -22 0
6 3 27 0
6 -3 -27 0
8 3 30 0
8 -3 -30 0
5 3 36 0
5 -3 -36 0
9 3 39 0
9 -3 -39 0
3 3 40 0
3 -3 -40 0
4 3 43 0
4 -3 -43 0
9 3 46 0
9 -3 -46 0
10 3 47 0
10 -3 -47 0
1 3 52 0
1 -3 -52 0
10 3 53 0
10 -3 -53 0
6 3 54 0
6 -3 -54 0
1 3 56 0
1 -3 -56 0
2 3 57 0
2 -3 -57 0
7 3 60 0
7 -3 -60 0
9 4 6 0
9 -4 -6 0
4 4 7 0
4 -4 -7 0
1 4 8 0
1 -4 -8 0
1 4 17 0
1 -4 -17 0
5 4 18 0
5 -4 -18 0
1 4 24 0
1 -4 -24 0
3 4 32 0
3 -4 -32 0
10 4 39 0
10 -4 -39 0
10 4 40 0
10 -4 -40 0
9 4 41 0
9 -4 -41 0
3 4 45 0
3 -4 -45 0
6 4 47 0
6 -4 -47 0
4 4 51 0
4 -4 -51 0
8 4 54 0
8 -4 -54 0
6 4 57 0
6 -4 -57 0
7 4 58 0
7 -4 -58 0
6 4 60 0
6 -4 -60 0
1 5 7 0
1 -5 -7 0
5 5 12 0
5 -5 -12 0
10 5 13 0
10 -5 -13 0
10 5 25 0
10 -5 -25 0
8 5 31 0
8 -5 -31 0
3 5 35 0
3 -5 -35 0
8 5 46 0
8 -5 -46 0
7 5 48 0
7 -5 -48 0
4 5 49 0
4 -5 -49 0
7 5 52 0
7 -5 -52 0
2 5 53 0
2 -5 -53 0
5 5 57 0
5 -5 -57 0
9 5 59 0
9 -5 -59 0
9 6 9 0
9 -6 -9 0
4 6 12 0
4 -6 -12 0
3 6 13 0
3 -6 -13 0
9 6 15 0
9 -6 -15 0
4 6 23 0
4 -6 -23 0
7 6 24 0
7 -6 -24 0
10 6 27 0
10 -6 -27 0
6 6 31 0
6 -6 -31 0
7 6 32 0
7 -6 -32 0
9 6 36 0
9 -6 -36 0
5 6 37 0
5 -6 -37 0
10 6 41 0
10 -6 -41 0
4 6 43 0
4 -6 -43 0
9 6 44 0
9 -6 -44 0
7 6 45 0
7 -6 -45 0
10 6 46 0
10 -6 -46 0
5 6 48 0
5 -6 -48 0
3 6 57 0
3 -6 -57 0
10 6 58 0
10 -6 -58 0
10 6 60 0
10 -6 -60 0
2 7 9 0
2 -7 -9 0
9 7 10 0
9 -7 -10 0
7 7 11 0
7 -7 -11 0
5 7 13 0
5 -7 -13 0
7 7 24 0
7 -7 -24 0
3 7 33 0
3 -7 -33 0
8 7 41 0
8 -7 -41 0
4 7 45 0
4 -7 -45 0
5 7 47 0
5 -7 -47 0
3 7 53 0
3 -7 -53 0
2 7 57 0
2 -7 -57 0
3 7 59 0
3 -7 -59 0
6 8 10 0
6 -8 -10 0
5 8 13 0
5 -8 -13 0
2 8 15 0
2 -8 -15 0
10 8 20 0
10 -8 -20 0
2 8 25 0
2 -8 -25 0
2 8 26 0
2 -8 -26 0
5 8 32 0
5 -8 -32 0
8 8 34 0
8 -8 -34 0
10 8 37 0
10 -8 -37 0
10 8 38 0
10 -8 -38 0
7 8 40 0
7 -8 -40 0
4 8 41 0
4 -8 -41 0
8 8 43 0
8 -8 -43 0
4 8 46 0
4 -8 -46 0
3 8 48 0
3 -8 -48 0
3 8 49 0
3 -8 -49 0
6 8 50 0
6 -8 -50 0
3 8 54 0
3 -8 -54 0
2 8 59 0
2 -8 -59 0
8 9 10 0
8 -9 -10 0
2 9 14 0
2 -9 -14 0
8 9 18 0
8 -9 -18 0
2 9 22 0
2 -9 -22 0
8 9 25 0
8 -9 -25 0
1 9 26 0
1 -9 -26 0
10 9 29 0
10 -9 -29 0
1 9 30 0
1 -9 -30 0
6 9 31 0
6 -9 -31 0
2 9 32 0
2 -9 -32 0
3 9 41 0
3 -9 -41 0
8 9 42 0
8 -9 -42 0
8 9 47 0
8 -9 -47 0
7 9 52 0
7 -9 -52 0
10 9 56 0
10 -9 -56 0
7 9 57 0
7 -9 -57 0
8 9 58 0
8 -9 -58 0
1 9 59 0
1 -9 -59 0
2 9 60 0
2 -9 -60 0
6 10 19 0
6 -10 -19 0
1 10 23 0
1 -10 -23 0
1 10 24 0
1 -10 -24 0
3 10 25 0
3 -10 -25 0
5 10 26 0
5 -10 -26 0
9 10 31 0
9 -10 -31 0
6 10 32 0
6 -10 -32 0
8 10 33 0
8 -10 -33 0
1 10 34 0
1 -10 -34 0
2 10 36 0
2 -10 -36 0
10 10 37 0
10 -10 -37 0
3 10 45 0
3 -10 -45 0
9 10 47 0
9 -10 -47 0
2 10 49 0
2 -10 -49 0
10 10 52 0
10 -10 -52 0
1 10 58 0
1 -10 -58 0
9 11 12 0
9 -11 -12 0
1 11 18 0
1 -11 -18 0
1 11 25 0
1 -11 -25 0
10 11 29 0
10 -11 -29 0
6 11 34 0
6 -11 -34 0
2 11 35 0
2 -11 -35 0
2 11 42 0
2 -11 -42 0
4 11 47 0
4 -11 -47 0
10 11 51 0
10 -11 -51 0
9 11 54 0
9 -11 -54 0
4 11 55 0
4 -11 -55 0
6 11 56 0
6 -11 -56 0
6 11 58 0
6 -11 -58 0
5 11 60 0
5 -11 -60 0
7 12 14 0
7 -12 -14 0
1 12 16 0
1 -12 -16 0
6 12 17 0
6 -12 -17 0
8 12 18 0
8 -12 -18 0
4 12 23 0
4 -12 -23 0
10 12 25 0
10 -12 -25 0
6 12 27 0
6 -12 -27 0
9 12 28 0
9 -12 -28 0
8 12 30 0
8 -12 -30 0
7 12 37 0
7 -12 -37 0
1 12 40 0
1 -12 -40 0
8 12 46 0
8 -12 -46 0
9 12 48 0
9 -12 -48 0
10 12 51 0
10 -12 -51 0
9 12 54 0
9 -12 -54 0
9 12 58 0
9 -12 -58 0
10 13 16 0
10 -13 -16 0
8 13 19 0
8 -13 -19 0
10 13 20 0
10 -13 -20 0
10 13 21 0
10 -13 -21 0
7 13 24 0
7 -13 -24 0
5 13 30 0
5 -13 -30 0
2 13 37 0
2 -13 -37 0
9 13 40 0
9 -13 -40 0
9 13 45 0
9 -13 -45 0
1 13 47 0
1 -13 -47 0
7 13 54 0
7 -13 -54 0
3 13 57 0
3 -13 -57 0
7 13 58 0
7 -13 -58 0
3 14 17 0
3 -14 -17 0
8 14 19 0
8 -14 -19 0
4 14 20 0
4 -14 -20 0
4 14 22 0
4 -14 -22 0
3 14 24 0
3 -14 -24 0
1 14 25 0
1 -14 -25 0
7 14 26 0
7 -14 -26 0
3 14 27 0
3 -14 -27 0
7 14 29 0
7 -14 -29 0
6 14 31 0
6 -14 -31 0
10 14 33 0
10 -14 -33 0
3 14 41 0
3 -14 -41 0
6 14 47 0
6 -14 -47 0
8 14 48 0
8 -14 -48 0
2 14 54 0
2 -14 -54 0
5 15 16 0
5 -15 -16 0
6 15 17 0
6 -15 -17 0
10 15 20 0
10 -15 -20 0
5 15 21 0
5 -15 -21 0
4 15 23 0
4 -15 -23 0
9 15 24 0
9 -15 -24 0
5 15 28 0
5 -15 -28 0
1 15 33 0
1 -15 -33 0
4 15 37 0
4 -15 -37 0
6 15 41 0
6 -15 -41 0
9 15 43 0
9 -15 -43 0
3 15 45 0
3 -15 -45 0
7 15 46 0
7 -15 -46 0
5 15 47 0
5 -15 -47 0
5 15 56 0
5 -15 -56 0
4 15 58 0
4 -15 -58 0
8 15 60 0
8 -15 -60 0
2 16 22 0
2 -16 -22 0
7 16 26 0
7 -16 -26 0
1 16 27 0
1 -16 -27 0
5 16 28 0
5 -16 -28 0
7 16 29 0
7 -16 -29 0
7 16 30 0
7 -16 -30 0
7 16 32 0
7 -16 -32 0
4 16 37 0
4 -16 -37 0
2 16 38 0
2 -16 -38 0
7 16 39 0
7 -16 -39 0
7 16 45 0
7 -16 -45 0
8 16 48 0
8 -16 -48 0
4 16 50 0
4 -16 -50 0
8 16 52 0
8 -16 -52 0
3 16 56 0
3 -16 -56 0
10 16 57 0
10 -16 -57 0
7 16 59 0
7 -16 -59 0
7 17 21 0
7 -17 -21 0
3 17 33 0
3 -17 -33 0
6 17 34 0
6 -17 -34 0
1 17 35 0
1 -17 -35 0
3 17 37 0
3 -17 -37 0
9 17 39 0
9 -17 -39 0
7 17 41 0
7 -17 -41 0
1 17 46 0
1 -17 -46 0
2 17 47 0
2 -17 -47 0
4 17 50 0
4 -17 -50 0
6 17 55 0
6 -17 -55 0
6 18 25 0
6 -18 -25 0
7 18 29 0
7 -18 -29 0
3 18 42 0
3 -18 -42 0
8 18 44 0
8 -18 -44 0
3 18 46 0
3 -18 -46 0
4 18 47 0
4 -18 -47 0
2 18 49 0
2 -18 -49 0
10 18 50 0
10 -18 -50 0
1 18 51 0
1 -18 -51 0
9 18 54 0
9 -18 -54 0
4 18 55 0
4 -18 -55 0
2 18 56 0
2 -18 -56 0
5 19 23 0
5 -19 -23 0
10 19 26 0
10 -19 -26 0
10 19 28 0
10 -19 -28 0
8 19 35 0
8 -19 -35 0
7 19 38 0
7 -19 -38 0
2 19 43 0
2 -19 -43 0
7 19 44 0
7 -19 -44 0
4 19 45 0
4 -19 -45 0
8 19 50 0
8 -19 -50 0
10 19 52 0
10 -19 -52 0
10 19 57 0
10 -19 -57 0
9 20 25 0
9 -20 -25 0
3 20 28 0
3 -20 -28 0
8 20 30 0
8 -20 -30 0
6 20 31 0
6 -20 -31 0
3 20 32 0
3 -20 -32 0
10 20 35 0
10 -20 -35 0
10 20 39 0
10 -20 -39 0
9 20 57 0
9 -20 -57 0
5 21 24 0
5 -21 -24 0
6 21 25 0
6 -21 -25 0
2 21 35 0
2 -21 -35 0
3 21 38 0
3 -21 -38 0
9 21 40 0
9 -21 -40 0
5 21 41 0
5 -21 -41 0
5 21 44 0
5 -21 -44 0
9 21 47 0
9 -21 -47 0
5 21 49 0
5 -21 -49 0
3 21 53 0
3 -21 -53 0
2 21 56 0
2 -21 -56 0
7 22 27 0
7 -22 -27 0
8 22 28 0
8 -22 -28 0
2 22 29 0
2 -22 -29 0
7 22 30 0
7 -22 -30 0
5 22 31 0
5 -22 -31 0
9 22 34 0
9 -22 -34 0
8 22 37 0
8 -22 -37 0
2 22 42 0
2 -22 -42 0
3 22 45 0
3 -22 -45 0
5 22 49 0
5 -22 -49 0
2 22 51 0
2 -22 -51 0
2 22 52 0
2 -22 -52 0
4 22 55 0
4 -22 -55 0
4 22 58 0
4 -22 -58 0
10 22 59 0
10 -22 -59 0
10 23 25 0
10 -23 -25 0
7 23 29 0
7 -23 -29 0
9 23 30 0
9 -23 -30 0
9 23 31 0
9 -23 -31 0
5 23 33 0
5 -23 -33 0
4 23 35 0
4 -23 -35 0
4 23 36 0
4 -23 -36 0
7 23 45 0
7 -23 -45 0
7 23 56 0
7 -23 -56 0
3 23 57 0
3 -23 -57 0
2 23 59 0
2 -23 -59 0
1 24 25 0
1 -24 -25 0
2 24 29 0
2 -24 -29 0
7 24 39 0
7 -24 -39 0
4 24 40 0
4 -24 -40 0
3 24 41 0
3 -24 -41 0
4 24 42 0
4 -24 -42 0
1 24 46 0
1 -24 -46 0
5 24 54 0
5 -24 -54 0
10 24 55 0
10 -24 -55 0
6 25 27 0
6 -25 -27 0
3 25 28 0
3 -25 -28 0
7 25 30 0
7 -25 -30 0
8 25 32 0
8 -25 -32 0
5 25 33 0
5 -25 -33 0
2 25 35 0
2 -25 -35 0
9 25 36 0
9 -25 -36 0
7 25 39 0
7 -25 -39 0
6 25 40 0
6 -25 -40 0
3 25 43 0
3 -25 -43 0
6 25 49 0
6 -25 -49 0
5 25 51 0
5 -25 -51 0
9 25 58 0
9 -25 -58 0
4 26 29 0
4 -26 -29 0
3 26 42 0
3 -26 -42 0
4 26 49 0
4 -26 -49 0
8 26 51 0
8 -26 -51 0
7 26 53 0
7 -26 -53 0
10 26 54 0
10 -26 -54 0
4 26 55 0
4 -26 -55 0
9 26 58 0
9 -26 -58 0
2 27 29 0
2 -27 -29 0
5 27 31 0
5 -27 -31 0
1 27 32 0
1 -27 -32 0
8 27 35 0
8 -27 -35 0
8 27 37 0
8 -27 -37 0
3 27 41 0
3 -27 -41 0
2 27 43 0
2 -27 -43 0
9 27 44 0
9 -27 -44 0
8 27 48 0
8 -27 -48 0
1 27 49 0
1 -27 -49 0
5 27 50 0
5 -27 -50 0
10 27 51 0
10 -27 -51 0
8 27 54 0
8 -27 -54 0
3 27 57 0
3 -27 -57 0
5 27 58 0
5 -27 -58 0
9 27 60 0
9 -27 -60 0
1 28 30 0
1 -28 -30 0
1 28 34 0
1 -28 -34 0
4 28 35 0
4 -28 -35 0
4 28 39 0
4 -28 -39 0
7 28 40 0
7 -28 -40 0
9 28 42 0
9 -28 -42 0
2 28 47 0
2 -28 -47 0
1 28 49 0
1 -28 -49 0
1 28 51 0
1 -28 -51 0
5 28 52 0
5 -28 -52 0
8 28 54 0
8 -28 -54 0
7 28 55 0
7 -28 -55 0
5 29 32 0
5 -29 -32 0
2 29 35 0
2 -29 -35 0
6 29 42 0
6 -29 -42 0
6 29 47 0
6 -29 -47 0
6 29 48 0
6 -29 -48 0
6 29 53 0
6 -29 -53 0
4 29 55 0
4 -29 -55 0
4 29 57 0
4 -29 -57 0
9 29 58 0
9 -29 -58 0
5 29 60 0
5 -29 -60 0
2 30 34 0
2 -30 -34 0
7 30 35 0
7 -30 -35 0
6 30 36 0
6 -30 -36 0
7 30 42 0
7 -30 -42 0
6 30 45 0
6 -30 -45 0
3 30 48 0
3 -30 -48 0
9 30 50 0
9 -30 -50 0
1 30 52 0
1 -30 -52 0
1 30 54 0
1 -30 -54 0
10 30 55 0
10 -30 -55 0
2 30 57 0
2 -30 -57 0
5 31 33 0
5 -31 -33 0
3 31 35 0
3 -31 -35 0
9 31 37 0
9 -31 -37 0
3 31 38 0
3 -31 -38 0
4 31 41 0
4 -31 -41 0
9 31 49 0
9 -31 -49 0
4 31 53 0
4 -31 -53 0
9 31 57 0
9 -31 -57 0
7 32 34 0
7 -32 -34 0
1 32 37 0
1 -32 -37 0
3 32 41 0
3 -32 -41 0
8 32 47 0
8 -32 -47 0
7 32 48 0
7 -32 -48 0
9 32 49 0
9 -32 -49 0
4 32 52 0
4 -32 -52 0
3 32 57 0
3 -32 -57 0
2 33 38 0
2 -33 -38 0
7 33 41 0
7 -33 -41 0
2 33 42 0
2 -33 -42 0
7 33 45 0
7 -33 -45 0
8 33 46 0
8 -33 -46 0
8 33 51 0
8 -33 -51 0
3 33 54 0
3 -33 -54 0
5 33 56 0
5 -33 -56 0
4 33 60 0
4 -33 -60 0
5 34 36 0
5 -34 -36 0
3 34 37 0
3 -34 -37 0
4 34 39 0
4 -34 -39 0
6 34 48 0
6 -34 -48 0
2 34 50 0
2 -34 -50 0
6 34 52 0
6 -34 -52 0
1 34 53 0
1 -34 -53 0
4 34 54 0
4 -34 -54 0
4 34 57 0
4 -34 -57 0
4 34 59 0
4 -34 -59 0
8 34 60 0
8 -34 -60 0
3 35 39 0
3 -35 -39 0
7 35 40 0
7 -35 -40 0
6 35 43 0
6 -35 -43 0
10 35 45 0
10 -35 -45 0
7 35 46 0
7 -35 -46 0
9 35 47 0
9 -35 -47 0
7 35 49 0
7 -35 -49 0
4 35 52 0
4 -35 -52 0
7 35 58 0
7 -35 -58 0
1 36 37 0
1 -36 -37 0
6 36 38 0
6 -36 -38 0
9 36 46 0
9 -36 -46 0
7 36 50 0
7 -36 -50 0
7 36 52 0
7 -36 -52 0
6 37 45 0
6 -37 -45 0
5 37 49 0
5 -37 -49 0
4 37 50 0
4 -37 -50 0
8 37 52 0
8 -37 -52 0
9 37 57 0
9 -37 -57 0
7 37 59 0
7 -37 -59 0
2 38 39 0
2 -38 -39 0
1 38 43 0
1 -38 -43 0
1 38 47 0
1 -38 -47 0
7 38 53 0
7 -38 -53 0
2 38 56 0
2 -38 -56 0
7 38 57 0
7 -38 -57 0
8 38 58 0
8 -38 -58 0
6 38 59 0
6 -38 -59 0
1 39 41 0
1 -39 -41 0
1 39 42 0
1 -39 -42 0
4 39 46 0
4 -39 -46 0
3 39 48 0
3 -39 -48 0
7 39 51 0
7 -39 -51 0
9 39 54 0
9 -39 -54 0
2 40 41 0
2 -40 -41 0
4 40 44 0
4 -40 -44 0
7 40 55 0
7 -40 -55 0
9 40 60 0
9 -40 -60 0
7 41 47 0
7 -41 -47 0
4 41 50 0
4 -41 -50 0
9 41 53 0
9 -41 -53 0
2 41 57 0
2 -41 -57 0
2 41 58 0
2 -41 -58 0
6 41 60 0
6 -41 -60 0
9 42 43 0
9 -42 -43 0
7 42 44 0
7 -42 -44 0
10 42 46 0
10 -42 -46 0
2 42 47 0
2 -42 -47 0
4 42 51 0
4 -42 -51 0
8 42 53 0
8 -42 -53 0
9 42 56 0
9 -42 -56 0
6 42 58 0
6 -42 -58 0
8 42 60 0
8 -42 -60 0
10 43 45 0
10 -43 -45 0
3 43 47 0
3 -43 -47 0
10 43 49 0
10 -43 -49 0
6 43 50 0
6 -43 -50 0
10 43 55 0
10 -43 -55 0
5 43 57 0
5 -43 -57 0
6 43 60 0
6 -43 -60 0
10 44 45 0
10 -44 -45 0
8 44 47 0
8 -44 -47 0
9 44 48 0
9 -44 -48 0
6 44 52 0
6 -44 -52 0
7 44 58 0
7 -44 -58 0
10 44 59 0
10 -44 -59 0
10 45 47 0
10 -45 -47 0
4 45 50 0
4 -45 -50 0
9 45 52 0
9 -45 -52 0
6 45 54 0
6 -45 -54 0
7 45 57 0
7 -45 -57 0
8 45 60 0
8 -45 -60 0
8 46 51 0
8 -46 -51 0
8 46 54 0
8 -46 -54 0
3 47 49 0
3 -47 -49 0
7 47 50 0
7 -47 -50 0
5 47 51 0
5 -47 -51 0
2 47 53 0
2 -47 -53 0
8 47 57 0
8 -47 -57 0
9 48 49 0
9 -48 -49 0
9 48 53 0
9 -48 -53 0
7 48 56 0
7 -48 -56 0
5 48 59 0
5 -48 -59 0
7 49 52 0
7 -49 -52 0
6 49 54 0
6 -49 -54 0
7 49 55 0
7 -49 -55 0
6 49 58 0
6 -49 -58 0
2 49 59 0
2 -49 -59 0
6 50 51 0
6 -50 -51 0
1 50 53 0
1 -50 -53 0
8 50 58 0
8 -50 -58 0
6 51 54 0
6 -51 -54 0
9 51 56 0
9 -51 -56 0
6 51 58 0
6 -51 -58 0
2 51 59 0
2 -51 -59 0
5 52 56 0
5 -52 -56 0
6 52 58 0
6 -52 -58 0
1 53 56 0
1 -53 -56 0
9 53 59 0
9 -53 -59 0
4 54 56 0
4 -54 -56 0
7 54 58 0
7 -54 -58 0
5 55 57 0
5 -55 -57 0
2 56 58 0
2 -56 -58 0
5 57 58 0
5 -57 -58 0
